36 11 23 5 14 55 73 74 
60 
38 56 12 43 17 2 48 
33 65 15 64 62 67 53 41 22 75 66 68 13 18 
9 10 29 7 58 47 
44 21 8 34 37 32 72 16 26 50 71 
42 39 27 45 57 30 69 3 54 40 61 59 6 52 46 49 31 1 19 63 4 20 35 25 24 51 70 28 

